#######################################
### Exact MIP solver for the HHCRSP ###
#######################################
-- Instance file: new-instances/HHCRSP_200_40_95_0.8_R_RC.txt
-- Max threads: 4
-- Time limit: 999999 seconds
-- Use initial solution: No
Trivial flow violations prevented generating 337524 variables.
Version identifier: 20.1.0.0 | 2020-11-10 | 9bedb6d68
CPXPARAM_Threads                                 4
CPXPARAM_TimeLimit                               999999
Parallel mode: deterministic, using up to 4 threads for concurrent optimization:
 * Starting dual Simplex on 1 thread...
 * Starting Barrier on 3 threads...
Tried aggregator 1 time.
LP Presolve eliminated 21408 rows and 5193 columns.
Reduced LP has 411362 rows, 394399 columns, and 6501030 nonzeros.
Presolve time = 11.98 sec. (1531.49 ticks)
Symmetry aggregator did 648261 additional substitutions.
Initializing dual steep norms . . .

Iteration log . . .
Iteration:     1   Dual objective     =             1.333333

Dual crossover.
  Dual:  Fixing 844 variables.
      843 DMoves:  Infeasibility  5.09148281e-13  Objective  3.03333333e+02
        0 DMoves:  Infeasibility  3.53828080e-13  Objective  3.03333333e+02
  Dual:  Pushed 96, exchanged 748.
  Primal:  Fixing 835 variables.
      834 PMoves:  Infeasibility  6.66133815e-16  Objective  3.03333333e+02
        0 PMoves:  Infeasibility  6.66133815e-16  Objective  3.03333333e+02
  Primal:  Pushed 729, exchanged 106.

Dual simplex solved model.


Solution status from MIP model:
-- Processing time: 21.412 sec.
-- Memory used: 441.604 MB
-- Best bound: inf
-- Obj value: 303.333
-- Gap: inf%
-- Total distance: 910
-- Total tardiness: 0
-- Largest tardiness: 0
